(set-logic QF_NRA)
(set-info :source |
From termination analysis of term rewriting.

Submitted by Harald Roman Zankl <Harald.Zankl@uibk.ac.at>

|)
(set-info :smt-lib-version 2.0)
(set-info :category "industrial")
(set-info :status unknown)
(declare-fun x6 () Real)
(declare-fun x3 () Real)
(declare-fun x0 () Real)
(declare-fun x7 () Real)
(declare-fun x4 () Real)
(declare-fun x1 () Real)
(declare-fun x8 () Real)
(declare-fun x5 () Real)
(declare-fun x2 () Real)
(declare-fun x9 () Real)
(assert (>= x6 0))
(assert (>= x3 0))
(assert (>= x0 0))
(assert (>= x7 0))
(assert (>= x4 0))
(assert (>= x1 0))
(assert (>= x8 0))
(assert (>= x5 0))
(assert (>= x2 0))
(assert (>= x9 0))
(assert (let ((?v_4 (+ x0 (* x1 x2)))) (let ((?v_0 (+ ?v_4 (* x5 x2))) (?v_9 (* x1 x4))) (let ((?v_6 (>= ?v_9 x1)) (?v_1 (+ x0 (* x1 x6))) (?v_3 (* x1 x8)) (?v_2 (+ x0 (* x5 x6))) (?v_11 (+ x6 (* x7 x2))) (?v_21 (* x8 x9))) (let ((?v_20 (+ ?v_11 ?v_21))) (let ((?v_5 (+ ?v_4 (* x5 ?v_20))) (?v_15 (* x7 x4))) (let ((?v_10 (* x5 ?v_15)) (?v_12 (+ x2 (* x4 x6)))) (let ((?v_7 (+ (+ x0 (* x1 ?v_12)) (* x5 x9))) (?v_8 (* x1 x3)) (?v_14 (* x7 x3)) (?v_16 (* x4 x7)) (?v_17 (* x4 x8))) (let ((?v_24 (and (and (and (and (and (and (and (> ?v_0 x0) (>= ?v_0 x0)) ?v_6) (>= (* x5 x4) x5)) (and (and (> ?v_1 x0) (>= ?v_1 x0)) (>= ?v_3 x1))) (and (and (and (and (> ?v_1 ?v_2) (>= ?v_1 ?v_2)) (>= (* x1 x7) x1)) (>= ?v_3 (* x5 x7))) (>= x5 (* x5 x8)))) (and (and (and (> ?v_5 x0) (>= ?v_5 x0)) ?v_6) (>= ?v_10 x5))) (and (and (and (and (> ?v_5 ?v_7) (>= ?v_5 ?v_7)) (>= (+ ?v_8 (* x5 ?v_14)) ?v_8)) (>= ?v_9 (* x1 ?v_16))) (>= ?v_10 (* x1 ?v_17))))) (?v_13 (+ ?v_11 (* x8 x2))) (?v_19 (+ x6 (* x8 x6))) (?v_18 (+ x6 (* x7 x6))) (?v_23 (+ (+ x6 (* x7 ?v_12)) ?v_21)) (?v_22 (+ ?v_11 (* x8 ?v_20)))) (and (and (and (and ?v_24 (and (and (and (and (> ?v_13 ?v_12) (>= ?v_13 ?v_12)) (>= (+ ?v_14 (* x8 x3)) x3)) (>= ?v_15 ?v_16)) (>= (* x8 x4) ?v_17))) (and (and (and (and (> ?v_18 ?v_19) (>= ?v_18 ?v_19)) (>= (* x7 x7) x7)) (>= (* x7 x8) (* x8 x7))) (>= x8 (* x8 x8)))) (and (and (and (and (> ?v_22 ?v_23) (>= ?v_22 ?v_23)) (>= (+ ?v_14 (* x8 ?v_14)) ?v_14)) (>= ?v_15 (* x7 ?v_16))) (>= (* x8 ?v_15) (* x7 ?v_17)))) ?v_24))))))))))
(check-sat)
(exit)
